50
20583

308 922
509 61
223 279
501 992
177 767
920 433
670 857
203 348
116 544
743 635
935 575
905 301
838 952
883 389
253 305
348 520
480 879
592 627
923 5
152 444
224 749
542 442
442 680
424 493
359 911
772 955
770 197
15 47
14 470
597 151
907 451
607 535
752 957
424 275
143 592
598 966
635 99
307 372
116 968
766 905
16 282
678 950
886 616
281 711
427 449
499 152
951 54
428 147
605 135
294 218
